00000000000000000000000000000000000000000000000000,00000000000000000000000000000000000000000000000000,00110000100000101001000001100000000001110100100101,00000000000000000000000000000000000000000000000000,11001110011000000000001000001011101110001011010010,00000000000001010010010110000000000000000000000000,00000001000110000100100000010100010000000000001000,00000000000000000000000000000000000000000000000000,00000000000000000000000000000000000000000000000000,00000000000000000000000000000000000000000000000000,[],[],[0, 0, 10, 10, 0, 0, 0, 0, 10, 0, 0, 0, 0, 0, 10, 0, 8, 0, 0, 10, 0, 0, 0, 0, 0, 3, 3, 0, 0, 0, 0, 0, 0, 0, 0, 0, 0, 10, 8, 3, 0, 10, 0, 0, 10, 0, 0, 10, 0, 3],[],[6, 2, 0, 0, 9, 9, 2, 0, 0, 6, 2, 0, 0, 0, 0, 0, 0, 0, 0, 0, 0, 0, 2, 0, 0, 0, 0, 0, 9, 0, 2, 9, 6, 0, 9, 2, 9, 0, 0, 0, 6, 0, 9, 9, 0, 2, 0, 0, 2, 0],[0, 0, 0, 0, 0, 0, 0, 0, 0, 0, 0, 0, 0, 7, 0, 1, 0, 0, 7, 0, 0, 7, 0, 1, 1, 0, 0, 0, 0, 0, 0, 0, 0, 0, 0, 0, 0, 0, 0, 0, 0, 0, 0, 0, 0, 0, 0, 0, 0, 0],[0, 0, 0, 0, 0, 0, 0, 4, 0, 0, 0, 5, 5, 0, 0, 0, 0, 5, 0, 0, 5, 0, 0, 0, 0, 0, 0, 4, 0, 4, 0, 0, 0, 4, 0, 0, 0, 0, 0, 0, 0, 0, 0, 0, 0, 0, 4, 0, 0, 0],[],[],[][15, 24, 23],[35, 30, 22, 1, 6, 10, 48, 45],[25, 39, 49, 26],[7, 46, 33, 27, 29],[17, 20, 11, 12],[0, 32, 9, 40],[13, 21, 18],[38, 16],[31, 4, 5, 34, 28, 43, 36, 42],[2, 44, 14, 41, 47, 19, 37, 3, 8]
00000000000000000000000000000000000000000000000000,00000000000000000000000000000000000000000000000000,00110000100000101001000000100000000001110100100101,00000000000000000000000000000000000000000000000000,10001101000100000000100000001011111000000000011000,00000000000011010110010110010100000000000000000000,00000000000000000000000000000000000000000000000000,00000000000000000000000000000000000000000000000000,01000010011000000000001001000000000110001011000010,00000000000000000000000000000000000000000000000000,[],[],[0, 0, 2, 2, 0, 0, 0, 0, 10, 0, 0, 0, 0, 0, 10, 0, 2, 0, 0, 10, 0, 0, 0, 0, 0, 0, 10, 0, 0, 0, 0, 0, 0, 0, 0, 0, 0, 10, 10, 2, 0, 2, 0, 0, 2, 0, 0, 2, 0, 2],[],[9, 0, 0, 0, 6, 9, 0, 9, 0, 0, 0, 6, 0, 0, 0, 0, 0, 0, 0, 0, 9, 0, 0, 0, 0, 0, 0, 0, 6, 0, 6, 9, 6, 6, 6, 0, 0, 0, 0, 0, 0, 0, 0, 0, 0, 9, 9, 0, 0, 0],[0, 0, 0, 0, 0, 0, 0, 0, 0, 0, 0, 0, 5, 8, 0, 1, 0, 1, 5, 0, 0, 1, 0, 5, 8, 0, 0, 5, 0, 5, 0, 0, 0, 0, 0, 0, 0, 0, 0, 0, 0, 0, 0, 0, 0, 0, 0, 0, 0, 0],[],[],[0, 3, 0, 0, 0, 0, 4, 0, 0, 7, 3, 0, 0, 0, 0, 0, 0, 0, 0, 0, 0, 0, 7, 0, 0, 4, 0, 0, 0, 0, 0, 0, 0, 0, 0, 4, 7, 0, 0, 0, 3, 0, 7, 4, 0, 0, 0, 0, 3, 0],[][15, 17, 21],[16, 39, 49, 44, 47, 3, 41, 2],[10, 40, 1, 48],[35, 43, 6, 25],[18, 12, 29, 27, 23],[34, 33, 4, 32, 30, 11, 28],[9, 36, 22, 42],[24, 13],[7, 31, 46, 20, 0, 5, 45],[38, 37, 19, 26, 8, 14]
00000000000000000000000000000000000000000000000000,00000000000000000000000000000000000000000000000000,00110000100000101001000000100000000001110100100101,10001101000000000000000000001011111100000000010010,00000000000000000000000000000000000000000000000000,00000000000001010010010010000000000000000000000000,00000000000000000000000000000000000000000000000000,00000000000110000100100100010100000000000000001000,01000010011000000000001001000000000010001011000000,00000000000000000000000000000000000000000000000000,[],[],[0, 0, 9, 3, 0, 0, 0, 0, 3, 0, 0, 0, 0, 0, 3, 0, 9, 0, 0, 9, 0, 0, 0, 0, 0, 0, 9, 0, 0, 0, 0, 0, 0, 0, 0, 0, 0, 3, 9, 3, 0, 9, 0, 0, 9, 0, 0, 9, 0, 3],[2, 0, 0, 0, 4, 2, 0, 2, 0, 0, 0, 0, 0, 0, 0, 0, 0, 0, 0, 0, 0, 0, 0, 0, 0, 0, 0, 0, 4, 0, 4, 4, 2, 4, 2, 2, 0, 0, 0, 0, 0, 0, 0, 0, 0, 2, 0, 0, 4, 0],[],[0, 0, 0, 0, 0, 0, 0, 0, 0, 0, 0, 0, 0, 8, 0, 1, 0, 0, 1, 0, 0, 8, 0, 0, 1, 0, 0, 0, 0, 0, 0, 0, 0, 0, 0, 0, 0, 0, 0, 0, 0, 0, 0, 0, 0, 0, 0, 0, 0, 0],[],[0, 0, 0, 0, 0, 0, 0, 0, 0, 0, 0, 7, 6, 0, 0, 0, 0, 7, 0, 0, 7, 0, 0, 6, 0, 0, 0, 6, 0, 6, 0, 0, 0, 0, 0, 0, 0, 0, 0, 0, 0, 0, 0, 0, 0, 0, 7, 0, 0, 0],[0, 10, 0, 0, 0, 0, 5, 0, 0, 10, 10, 0, 0, 0, 0, 0, 0, 0, 0, 0, 0, 0, 10, 0, 0, 5, 0, 0, 0, 0, 0, 0, 0, 0, 0, 0, 10, 0, 0, 0, 5, 0, 5, 10, 0, 0, 0, 0, 0, 0],[][24, 15, 18],[0, 34, 35, 45, 32, 7, 5],[39, 49, 8, 14, 37, 3],[30, 48, 4, 28, 33, 31],[42, 6, 25, 40],[12, 27, 23, 29],[46, 11, 20, 17],[21, 13],[47, 16, 38, 44, 41, 2, 19, 26],[43, 9, 22, 1, 36, 10]
00000000000000000000000000000000000000000000000000,10001101010000000000100000001001111000000000010000,00000000000000000000000000000000000000000000000000,00000000000000000000000000000000000000000000000000,00000000000000000000000000000000000000000000000000,00000000000000000000000000000000000000000000000000,00000000000000000000000000000000000000000000000000,00000000000011010110010110010100000000000000000000,00000000000000000000000000000000000000000000000000,01110010101100101001001001100010000111111111101111,[],[1, 0, 0, 0, 6, 6, 0, 1, 0, 3, 0, 0, 0, 0, 0, 0, 0, 0, 0, 0, 3, 0, 0, 0, 0, 0, 0, 0, 3, 0, 0, 3, 1, 6, 3, 0, 0, 0, 0, 0, 0, 0, 0, 0, 0, 1, 0, 0, 0, 0],[],[],[],[],[],[0, 0, 0, 0, 0, 0, 0, 0, 0, 0, 0, 0, 5, 8, 0, 5, 0, 4, 8, 0, 0, 5, 0, 8, 4, 0, 0, 4, 0, 4, 0, 0, 0, 0, 0, 0, 0, 0, 0, 0, 0, 0, 0, 0, 0, 0, 0, 0, 0, 0],[],[0, 10, 2, 7, 0, 0, 9, 0, 10, 0, 2, 9, 0, 0, 2, 0, 7, 0, 0, 9, 0, 0, 10, 0, 0, 9, 9, 0, 0, 0, 10, 0, 0, 0, 0, 2, 7, 2, 10, 9, 9, 9, 9, 2, 10, 0, 7, 10, 9, 7][0, 32, 45, 7],[43, 14, 2, 37, 10, 35],[31, 20, 28, 9, 34],[17, 24, 27, 29],[15, 21, 12],[33, 4, 5],[36, 49, 16, 3, 46],[13, 18, 23],[6, 48, 19, 39, 26, 11, 40, 42, 41, 25],[30, 47, 22, 8, 1, 38, 44]
00000000000000000000000000000000000000000000000000,00001101000000000000100000000001111000000000010000,00000000000000000000000000000000000000000000000000,00000000000000000000000000000000000000000000000000,00000000000000000000000000000000000000000000000000,00000000000000000000000000000000000000000000000000,00000000000000000000000000000000000000000000000000,00000000000011010110010110010100000000000000000000,11000010011000000001001001001000000010001011000000,00110000100100101000000000100010000101110100101111,[],[0, 0, 0, 0, 7, 5, 0, 5, 0, 0, 0, 0, 0, 0, 0, 0, 0, 0, 0, 0, 5, 0, 0, 0, 0, 0, 0, 0, 0, 0, 0, 7, 5, 5, 5, 0, 0, 0, 0, 0, 0, 0, 0, 0, 0, 7, 0, 0, 0, 0],[],[],[],[],[],[0, 0, 0, 0, 0, 0, 0, 0, 0, 0, 0, 0, 9, 1, 0, 9, 0, 9, 1, 0, 0, 9, 0, 9, 1, 0, 0, 9, 0, 1, 0, 0, 0, 0, 0, 0, 0, 0, 0, 0, 0, 0, 0, 0, 0, 0, 0, 0, 0, 0],[6, 3, 0, 0, 0, 0, 3, 0, 0, 8, 6, 0, 0, 0, 0, 0, 0, 0, 0, 6, 0, 0, 3, 0, 0, 6, 0, 0, 6, 0, 0, 0, 0, 0, 0, 0, 8, 0, 0, 0, 8, 0, 8, 3, 0, 0, 0, 0, 0, 0],[0, 0, 2, 10, 0, 0, 0, 0, 10, 0, 0, 10, 0, 0, 2, 0, 10, 0, 0, 0, 0, 0, 0, 0, 0, 0, 2, 0, 0, 0, 2, 0, 0, 0, 0, 10, 0, 2, 10, 10, 0, 4, 0, 0, 4, 0, 4, 2, 2, 4][24, 18, 13, 29],[14, 2, 37, 26, 48, 30, 47],[6, 22, 1, 43],[44, 49, 41, 46],[34, 7, 5, 20, 33, 32],[19, 25, 0, 28, 10],[4, 31, 45],[9, 36, 40, 42],[12, 15, 21, 23, 27, 17],[11, 38, 16, 8, 3, 39, 35]
00000000000000000000000000000000000000000000000000,00001101000100000000100000010001111000000000011000,00110000100000101001000001100000000001110100100101,00000000000000000000000000000000000000000000000000,11000010011000000000001000001010000110001011000010,00000000000011010110010110000100000000000000000000,00000000000000000000000000000000000000000000000000,00000000000000000000000000000000000000000000000000,00000000000000000000000000000000000000000000000000,00000000000000000000000000000000000000000000000000,[],[0, 0, 0, 0, 7, 4, 0, 6, 0, 0, 0, 4, 0, 0, 0, 0, 0, 0, 0, 0, 6, 0, 0, 0, 0, 0, 0, 6, 0, 0, 0, 7, 6, 4, 7, 0, 0, 0, 0, 0, 0, 0, 0, 0, 0, 4, 6, 0, 0, 0],[0, 0, 5, 3, 0, 0, 0, 0, 3, 0, 0, 0, 0, 0, 5, 0, 10, 0, 0, 10, 0, 0, 0, 0, 0, 3, 10, 0, 0, 0, 0, 0, 0, 0, 0, 0, 0, 5, 10, 5, 0, 3, 0, 0, 5, 0, 0, 3, 0, 10],[],[9, 9, 0, 0, 0, 0, 9, 0, 0, 1, 9, 0, 0, 0, 0, 0, 0, 0, 0, 0, 0, 0, 1, 0, 0, 0, 0, 0, 9, 0, 1, 0, 0, 0, 0, 9, 9, 0, 0, 0, 9, 0, 1, 9, 0, 0, 0, 0, 9, 0],[0, 0, 0, 0, 0, 0, 0, 0, 0, 0, 0, 0, 2, 8, 0, 2, 0, 2, 2, 0, 0, 8, 0, 2, 2, 0, 0, 0, 0, 8, 0, 0, 0, 0, 0, 0, 0, 0, 0, 0, 0, 0, 0, 0, 0, 0, 0, 0, 0, 0],[],[],[],[][9, 30, 42, 22],[24, 15, 12, 17, 18, 23],[3, 8, 41, 47, 25],[45, 5, 11, 33],[14, 44, 37, 39, 2],[32, 27, 20, 46, 7],[34, 4, 31],[13, 29, 21],[0, 48, 40, 1, 43, 6, 35, 10, 36, 28],[49, 19, 16, 26, 38]
00000000000000000000000000000000000000000000000000,00001101000100000000100000010001111000000000011000,00110000100000101001000000100000000001110100100101,00000000000000000000000000000000000000000000000000,00000000000000000000000000000000000000000000000000,00000000000011010110010110000100000000000000000000,00000000000000000000000000000000000000000000000000,00000000000000000000000000000000000000000000000000,11000010011000000000001001001010000110001011000010,00000000000000000000000000000000000000000000000000,[],[0, 0, 0, 0, 9, 9, 0, 9, 0, 0, 0, 7, 0, 0, 0, 0, 0, 0, 0, 0, 9, 0, 0, 0, 0, 0, 0, 7, 0, 0, 0, 9, 9, 7, 7, 0, 0, 0, 0, 0, 0, 0, 0, 0, 0, 9, 9, 0, 0, 0],[0, 0, 10, 8, 0, 0, 0, 0, 10, 0, 0, 0, 0, 0, 10, 0, 10, 0, 0, 10, 0, 0, 0, 0, 0, 0, 8, 0, 0, 0, 0, 0, 0, 0, 0, 0, 0, 1, 1, 1, 0, 8, 0, 0, 1, 0, 0, 8, 0, 8],[],[],[0, 0, 0, 0, 0, 0, 0, 0, 0, 0, 0, 0, 5, 5, 0, 3, 0, 5, 3, 0, 0, 4, 0, 4, 3, 0, 0, 0, 0, 4, 0, 0, 0, 0, 0, 0, 0, 0, 0, 0, 0, 0, 0, 0, 0, 0, 0, 0, 0, 0],[],[],[2, 2, 0, 0, 0, 0, 2, 0, 0, 6, 2, 0, 0, 0, 0, 0, 0, 0, 0, 0, 0, 0, 6, 0, 0, 6, 0, 0, 2, 0, 6, 0, 0, 0, 0, 2, 6, 0, 0, 0, 2, 0, 2, 2, 0, 0, 0, 0, 6, 0],[][38, 37, 39, 44],[35, 43, 40, 10, 6, 42, 0, 1, 28],[18, 15, 24],[23, 21, 29],[17, 13, 12],[25, 48, 9, 22, 36, 30],[34, 33, 27, 11],[41, 26, 49, 3, 47],[20, 31, 4, 7, 32, 5, 46, 45],[2, 14, 8, 16, 19]
00000000000000000000000000000000000000000000000000,00001101000100000000100000010001111000000000011000,00110000100000101001000001100000000001110100100101,00000000000000000000000000000000000000000000000000,11000010011000000000001000001010000110001011000010,00000000000011010110010110000100000000000000000000,00000000000000000000000000000000000000000000000000,00000000000000000000000000000000000000000000000000,00000000000000000000000000000000000000000000000000,00000000000000000000000000000000000000000000000000,[],[0, 0, 0, 0, 4, 10, 0, 10, 0, 0, 0, 10, 0, 0, 0, 0, 0, 0, 0, 0, 10, 0, 0, 0, 0, 0, 0, 10, 0, 0, 0, 4, 4, 4, 4, 0, 0, 0, 0, 0, 0, 0, 0, 0, 0, 10, 10, 0, 0, 0],[0, 0, 8, 3, 0, 0, 0, 0, 9, 0, 0, 0, 0, 0, 9, 0, 8, 0, 0, 9, 0, 0, 0, 0, 0, 3, 3, 0, 0, 0, 0, 0, 0, 0, 0, 0, 0, 3, 9, 9, 0, 8, 0, 0, 9, 0, 0, 3, 0, 9],[],[1, 1, 0, 0, 0, 0, 6, 0, 0, 1, 5, 0, 0, 0, 0, 0, 0, 0, 0, 0, 0, 0, 5, 0, 0, 0, 0, 0, 6, 0, 6, 0, 0, 0, 0, 5, 6, 0, 0, 0, 5, 0, 5, 5, 0, 0, 0, 0, 1, 0],[0, 0, 0, 0, 0, 0, 0, 0, 0, 0, 0, 0, 7, 2, 0, 2, 0, 2, 2, 0, 0, 7, 0, 2, 2, 0, 0, 0, 0, 7, 0, 0, 0, 0, 0, 0, 0, 0, 0, 0, 0, 0, 0, 0, 0, 0, 0, 0, 0, 0],[],[],[],[][0, 48, 9, 1],[24, 13, 23, 18, 17, 15],[26, 47, 25, 3, 37],[32, 33, 31, 34, 4],[10, 42, 43, 22, 40, 35],[28, 30, 6, 36],[29, 12, 21],[16, 2, 41],[38, 14, 19, 49, 44, 8, 39],[27, 45, 20, 46, 11, 7, 5]
00000000000000000000000000000000000000000000000000,00000000000000000000000000000000000000000000000000,00110000100000101001000000100000000001110100100101,00000000000000000000000000000000000000000000000000,10001101000000000000000000001011111000000000010000,00000000000001010010010010000000000000000000000000,00000000000000000000000000000000000000000000000000,00000000000110000100100100010100000000000000001000,01000010011000000000001001000000000110001011000010,00000000000000000000000000000000000000000000000000,[],[],[0, 0, 2, 2, 0, 0, 0, 0, 10, 0, 0, 0, 0, 0, 10, 0, 10, 0, 0, 10, 0, 0, 0, 0, 0, 0, 2, 0, 0, 0, 0, 0, 0, 0, 0, 0, 0, 2, 2, 2, 0, 10, 0, 0, 2, 0, 0, 10, 0, 2],[],[6, 0, 0, 0, 7, 6, 0, 7, 0, 0, 0, 0, 0, 0, 0, 0, 0, 0, 0, 0, 0, 0, 0, 0, 0, 0, 0, 0, 7, 0, 7, 6, 7, 6, 7, 0, 0, 0, 0, 0, 0, 0, 0, 0, 0, 7, 0, 0, 0, 0],[0, 0, 0, 0, 0, 0, 0, 0, 0, 0, 0, 0, 0, 5, 0, 1, 0, 0, 1, 0, 0, 1, 0, 0, 5, 0, 0, 0, 0, 0, 0, 0, 0, 0, 0, 0, 0, 0, 0, 0, 0, 0, 0, 0, 0, 0, 0, 0, 0, 0],[],[0, 0, 0, 0, 0, 0, 0, 0, 0, 0, 0, 4, 3, 0, 0, 0, 0, 3, 0, 0, 3, 0, 0, 4, 0, 0, 0, 4, 0, 4, 0, 0, 0, 0, 0, 0, 0, 0, 0, 0, 0, 0, 0, 0, 0, 0, 4, 0, 0, 0],[0, 9, 0, 0, 0, 0, 9, 0, 0, 9, 9, 0, 0, 0, 0, 0, 0, 0, 0, 0, 0, 0, 9, 0, 0, 8, 0, 0, 0, 0, 0, 0, 0, 0, 0, 8, 9, 0, 0, 0, 9, 0, 8, 9, 0, 0, 0, 0, 8, 0],[][18, 15, 21],[49, 44, 39, 3, 26, 37, 2, 38],[20, 17, 12],[23, 27, 29, 46, 11],[24, 13],[33, 0, 5, 31],[45, 32, 30, 34, 4, 7, 28],[42, 48, 35, 25],[9, 10, 36, 22, 1, 6, 40, 43],[47, 14, 8, 19, 16, 41]
00000000000000000000000000000000000000000000000000,00000000000000000000000000000000000000000000000000,00110000100000101001000000100000000001110100100101,10001100000000000000000000001011101100000000010010,00000000000000000000000000000000000000000000000000,00000000000001010010010110000000000000000000000000,00000001000110000100100000010100010000000000001000,00000000000000000000000000000000000000000000000000,01000010011000000000001001000000000010001011000000,00000000000000000000000000000000000000000000000000,[],[],[0, 0, 9, 9, 0, 0, 0, 0, 9, 0, 0, 0, 0, 0, 2, 0, 9, 0, 0, 2, 0, 0, 0, 0, 0, 0, 2, 0, 0, 0, 0, 0, 0, 0, 0, 0, 0, 9, 9, 2, 0, 2, 0, 0, 2, 0, 0, 9, 0, 9],[10, 0, 0, 0, 6, 6, 0, 0, 0, 0, 0, 0, 0, 0, 0, 0, 0, 0, 0, 0, 0, 0, 0, 0, 0, 0, 0, 0, 10, 0, 10, 6, 10, 0, 10, 10, 0, 0, 0, 0, 0, 0, 0, 0, 0, 10, 0, 0, 6, 0],[],[0, 0, 0, 0, 0, 0, 0, 0, 0, 0, 0, 0, 0, 8, 0, 1, 0, 0, 1, 0, 0, 1, 0, 1, 8, 0, 0, 0, 0, 0, 0, 0, 0, 0, 0, 0, 0, 0, 0, 0, 0, 0, 0, 0, 0, 0, 0, 0, 0, 0],[0, 0, 0, 0, 0, 0, 0, 4, 0, 0, 0, 4, 3, 0, 0, 0, 0, 3, 0, 0, 4, 0, 0, 0, 0, 0, 0, 3, 0, 4, 0, 0, 0, 4, 0, 0, 0, 0, 0, 0, 0, 0, 0, 0, 0, 0, 4, 0, 0, 0],[],[0, 5, 0, 0, 0, 0, 5, 0, 0, 7, 7, 0, 0, 0, 0, 0, 0, 0, 0, 0, 0, 0, 5, 0, 0, 5, 0, 0, 0, 0, 0, 0, 0, 0, 0, 0, 5, 0, 0, 0, 7, 0, 7, 5, 0, 0, 0, 0, 0, 0],[][21, 23, 18, 15],[44, 39, 26, 14, 41, 19],[12, 17, 27],[46, 29, 20, 11, 33, 7],[1, 25, 36, 6, 22, 43],[48, 31, 4, 5],[40, 42, 10, 9],[24, 13],[38, 2, 47, 8, 3, 16, 49, 37],[30, 35, 32, 45, 34, 0, 28]
00000000000000000000000000000000000000000000000000,00001101000100000000000000000001111000000000010000,00110000100000101001000000100000000001110100100101,10000000000000000000000000001010000100000000000010,00000000000000000000000000000000000000000000000000,00000000000001010010010010000000000000000000000000,00000000000000000000100000010000000000000000001000,00000000000010000100000100000100000000000000000000,01000010011000000000001001000000000010001011000000,00000000000000000000000000000000000000000000000000,[],[0, 0, 0, 0, 6, 4, 0, 6, 0, 0, 0, 4, 0, 0, 0, 0, 0, 0, 0, 0, 0, 0, 0, 0, 0, 0, 0, 0, 0, 0, 0, 4, 6, 4, 6, 0, 0, 0, 0, 0, 0, 0, 0, 0, 0, 6, 0, 0, 0, 0],[0, 0, 2, 2, 0, 0, 0, 0, 2, 0, 0, 0, 0, 0, 2, 0, 9, 0, 0, 9, 0, 0, 0, 0, 0, 0, 2, 0, 0, 0, 0, 0, 0, 0, 0, 0, 0, 9, 2, 9, 0, 9, 0, 0, 2, 0, 0, 2, 0, 9],[8, 0, 0, 0, 0, 0, 0, 0, 0, 0, 0, 0, 0, 0, 0, 0, 0, 0, 0, 0, 0, 0, 0, 0, 0, 0, 0, 0, 8, 0, 8, 0, 0, 0, 0, 8, 0, 0, 0, 0, 0, 0, 0, 0, 0, 0, 0, 0, 8, 0],[],[0, 0, 0, 0, 0, 0, 0, 0, 0, 0, 0, 0, 0, 7, 0, 7, 0, 0, 7, 0, 0, 7, 0, 0, 7, 0, 0, 0, 0, 0, 0, 0, 0, 0, 0, 0, 0, 0, 0, 0, 0, 0, 0, 0, 0, 0, 0, 0, 0, 0],[0, 0, 0, 0, 0, 0, 0, 0, 0, 0, 0, 0, 0, 0, 0, 0, 0, 0, 0, 0, 3, 0, 0, 0, 0, 0, 0, 3, 0, 0, 0, 0, 0, 0, 0, 0, 0, 0, 0, 0, 0, 0, 0, 0, 0, 0, 3, 0, 0, 0],[0, 0, 0, 0, 0, 0, 0, 0, 0, 0, 0, 0, 1, 0, 0, 0, 0, 1, 0, 0, 0, 0, 0, 1, 0, 0, 0, 0, 0, 1, 0, 0, 0, 0, 0, 0, 0, 0, 0, 0, 0, 0, 0, 0, 0, 0, 0, 0, 0, 0],[0, 5, 0, 0, 0, 0, 5, 0, 0, 10, 10, 0, 0, 0, 0, 0, 0, 0, 0, 0, 0, 0, 10, 0, 0, 10, 0, 0, 0, 0, 0, 0, 0, 0, 0, 0, 10, 0, 0, 0, 5, 0, 5, 10, 0, 0, 0, 0, 0, 0],[][29, 23, 12, 17],[47, 38, 2, 44, 14, 8, 3, 26],[46, 20, 27],[31, 11, 5, 33],[1, 6, 40, 42],[7, 45, 34, 32, 4],[24, 13, 21, 18, 15],[28, 48, 35, 30, 0],[49, 19, 37, 41, 39, 16],[36, 9, 10, 22, 25, 43]
00000000000000000000000000000000000000000000000000,00000000000000000000000000000000000000000000000000,00110000100000101001000000100000000001110100100101,00000000000000000000000000000000000000000000000000,10001100000000000000000000001011101000000000010000,00000000000001010010010110000000000000000000000000,00000001000110000100100000010100010000000000001000,00000000000000000000000000000000000000000000000000,01000010011000000000001001000000000110001011000010,00000000000000000000000000000000000000000000000000,[],[],[0, 0, 9, 10, 0, 0, 0, 0, 9, 0, 0, 0, 0, 0, 9, 0, 9, 0, 0, 10, 0, 0, 0, 0, 0, 0, 10, 0, 0, 0, 0, 0, 0, 0, 0, 0, 0, 9, 10, 9, 0, 10, 0, 0, 10, 0, 0, 10, 0, 10],[],[6, 0, 0, 0, 6, 1, 0, 0, 0, 0, 0, 0, 0, 0, 0, 0, 0, 0, 0, 0, 0, 0, 0, 0, 0, 0, 0, 0, 1, 0, 6, 1, 6, 0, 6, 0, 0, 0, 0, 0, 0, 0, 0, 0, 0, 1, 0, 0, 0, 0],[0, 0, 0, 0, 0, 0, 0, 0, 0, 0, 0, 0, 0, 8, 0, 3, 0, 0, 8, 0, 0, 8, 0, 3, 3, 0, 0, 0, 0, 0, 0, 0, 0, 0, 0, 0, 0, 0, 0, 0, 0, 0, 0, 0, 0, 0, 0, 0, 0, 0],[0, 0, 0, 0, 0, 0, 0, 5, 0, 0, 0, 5, 7, 0, 0, 0, 0, 7, 0, 0, 5, 0, 0, 0, 0, 0, 0, 5, 0, 7, 0, 0, 0, 7, 0, 0, 0, 0, 0, 0, 0, 0, 0, 0, 0, 0, 5, 0, 0, 0],[],[0, 2, 0, 0, 0, 0, 2, 0, 0, 4, 4, 0, 0, 0, 0, 0, 0, 0, 0, 0, 0, 0, 4, 0, 0, 4, 0, 0, 0, 0, 0, 0, 0, 0, 0, 4, 2, 0, 0, 0, 2, 0, 2, 2, 0, 0, 0, 0, 4, 0],[][28, 5, 31, 45],[42, 1, 36, 6, 43, 40],[15, 23, 24],[9, 48, 35, 10, 22, 25],[20, 7, 11, 46, 27],[34, 32, 4, 30, 0],[17, 29, 12, 33],[18, 13, 21],[16, 37, 39, 8, 14, 2],[38, 3, 19, 47, 26, 44, 41, 49]
00000000000000000000000000000000000000000000000000,00000000000000000000000000000000000000000000000000,00110000100000101001000000100000000001110100100101,11001110011000000000001001001000100010001011010000,00000000000000000000000000000000000000000000000000,00000000000011010110010110000000000000000000000000,00000000000000000000000000000000000000000000000000,00000000000000000000000000000000000000000000000000,00000000000000000000000000000000000000000000000000,00000001000100000000100000010111011100000000001010,[],[],[0, 0, 2, 2, 0, 0, 0, 0, 3, 0, 0, 0, 0, 0, 2, 0, 7, 0, 0, 3, 0, 0, 0, 0, 0, 0, 7, 0, 0, 0, 0, 0, 0, 0, 0, 0, 0, 2, 2, 7, 0, 2, 0, 0, 2, 0, 0, 2, 0, 3],[10, 9, 0, 0, 10, 10, 9, 0, 0, 9, 9, 0, 0, 0, 0, 0, 0, 0, 0, 0, 0, 0, 9, 0, 0, 9, 0, 0, 9, 0, 0, 0, 9, 0, 0, 0, 10, 0, 0, 0, 9, 0, 10, 10, 0, 10, 0, 0, 0, 0],[],[0, 0, 0, 0, 0, 0, 0, 0, 0, 0, 0, 0, 5, 5, 0, 4, 0, 5, 5, 0, 0, 4, 0, 5, 4, 0, 0, 0, 0, 0, 0, 0, 0, 0, 0, 0, 0, 0, 0, 0, 0, 0, 0, 0, 0, 0, 0, 0, 0, 0],[],[],[],[0, 0, 0, 0, 0, 0, 0, 1, 0, 0, 0, 6, 0, 0, 0, 0, 0, 0, 0, 0, 1, 0, 0, 0, 0, 0, 0, 6, 0, 6, 8, 1, 0, 6, 8, 1, 0, 0, 0, 0, 0, 0, 0, 0, 0, 0, 8, 0, 6, 0][35, 7, 20, 31],[2, 41, 47, 44, 14, 3, 38, 37],[8, 49, 19],[15, 24, 21],[23, 12, 17, 13, 18],[33, 11, 48, 27, 29],[26, 16, 39],[30, 46, 34],[32, 9, 28, 40, 10, 1, 25, 22, 6],[5, 45, 0, 43, 42, 4, 36]
00000000000000000000000000000000000000000000000000,00001101000000000000100000000001111000000000010000,00110000100000101001000000100000000001110100100101,00000000000000000000000000000000000000000000000000,00000000000000000000000000000000000000000000000000,00000000000001010010010010000000000000000000000000,00000000000000000000000000000000000000000000000000,00000000000010000100000100010100000000000000000000,11000010011000000000001001001000000010001011000000,00000000000100000000000000000010000100000000001010,[],[0, 0, 0, 0, 6, 6, 0, 6, 0, 0, 0, 0, 0, 0, 0, 0, 0, 0, 0, 0, 7, 0, 0, 0, 0, 0, 0, 0, 0, 0, 0, 6, 7, 7, 7, 0, 0, 0, 0, 0, 0, 0, 0, 0, 0, 6, 0, 0, 0, 0],[0, 0, 10, 10, 0, 0, 0, 0, 9, 0, 0, 0, 0, 0, 9, 0, 10, 0, 0, 10, 0, 0, 0, 0, 0, 0, 9, 0, 0, 0, 0, 0, 0, 0, 0, 0, 0, 9, 10, 9, 0, 10, 0, 0, 9, 0, 0, 9, 0, 10],[],[],[0, 0, 0, 0, 0, 0, 0, 0, 0, 0, 0, 0, 0, 1, 0, 8, 0, 0, 8, 0, 0, 1, 0, 0, 8, 0, 0, 0, 0, 0, 0, 0, 0, 0, 0, 0, 0, 0, 0, 0, 0, 0, 0, 0, 0, 0, 0, 0, 0, 0],[],[0, 0, 0, 0, 0, 0, 0, 0, 0, 0, 0, 0, 4, 0, 0, 0, 0, 4, 0, 0, 0, 0, 0, 4, 0, 0, 0, 4, 0, 4, 0, 0, 0, 0, 0, 0, 0, 0, 0, 0, 0, 0, 0, 0, 0, 0, 0, 0, 0, 0],[3, 2, 0, 0, 0, 0, 3, 0, 0, 3, 3, 0, 0, 0, 0, 0, 0, 0, 0, 0, 0, 0, 2, 0, 0, 2, 0, 0, 3, 0, 0, 0, 0, 0, 0, 0, 2, 0, 0, 0, 2, 0, 2, 2, 0, 0, 0, 0, 0, 0],[0, 0, 0, 0, 0, 0, 0, 0, 0, 0, 0, 5, 0, 0, 0, 0, 0, 0, 0, 0, 0, 0, 0, 0, 0, 0, 0, 0, 0, 0, 5, 0, 0, 0, 0, 5, 0, 0, 0, 0, 0, 0, 0, 0, 0, 0, 5, 0, 5, 0][21, 13],[42, 43, 40, 36, 1, 22, 25],[28, 0, 9, 6, 10],[27, 29, 12, 23, 17],[30, 46, 11, 35, 48],[45, 5, 4, 31, 7],[34, 33, 32, 20],[18, 15, 24],[47, 37, 26, 8, 14, 39, 44],[19, 2, 49, 3, 41, 38, 16]
00000000000000000000000000000000000000000000000000,00000000000000000000000000000000000000000000000000,00110000100000101001000000100000000001110100100101,10001100000000000000000000001011101100000000010010,00000000000000000000000000000000000000000000000000,00000000000001010010010110000000000000000000000000,00000001000110000100100000010100010000000000001000,00000000000000000000000000000000000000000000000000,01000010011000000000001001000000000010001011000000,00000000000000000000000000000000000000000000000000,[],[],[0, 0, 7, 10, 0, 0, 0, 0, 7, 0, 0, 0, 0, 0, 7, 0, 10, 0, 0, 7, 0, 0, 0, 0, 0, 0, 7, 0, 0, 0, 0, 0, 0, 0, 0, 0, 0, 10, 10, 10, 0, 7, 0, 0, 10, 0, 0, 10, 0, 10],[2, 0, 0, 0, 3, 2, 0, 0, 0, 0, 0, 0, 0, 0, 0, 0, 0, 0, 0, 0, 0, 0, 0, 0, 0, 0, 0, 0, 2, 0, 2, 2, 2, 0, 2, 2, 0, 0, 0, 0, 0, 0, 0, 0, 0, 3, 0, 0, 3, 0],[],[0, 0, 0, 0, 0, 0, 0, 0, 0, 0, 0, 0, 0, 6, 0, 4, 0, 0, 6, 0, 0, 6, 0, 4, 4, 0, 0, 0, 0, 0, 0, 0, 0, 0, 0, 0, 0, 0, 0, 0, 0, 0, 0, 0, 0, 0, 0, 0, 0, 0],[0, 0, 0, 0, 0, 0, 0, 8, 0, 0, 0, 5, 5, 0, 0, 0, 0, 8, 0, 0, 8, 0, 0, 0, 0, 0, 0, 5, 0, 5, 0, 0, 0, 5, 0, 0, 0, 0, 0, 0, 0, 0, 0, 0, 0, 0, 8, 0, 0, 0],[],[0, 1, 0, 0, 0, 0, 1, 0, 0, 1, 9, 0, 0, 0, 0, 0, 0, 0, 0, 0, 0, 0, 9, 0, 0, 1, 0, 0, 0, 0, 0, 0, 0, 0, 0, 0, 9, 0, 0, 0, 9, 0, 9, 9, 0, 0, 0, 0, 0, 0],[][25, 6, 1, 9],[32, 34, 28, 5, 31, 30, 35, 0],[4, 45, 48],[15, 23, 24],[33, 11, 27, 12, 29],[21, 18, 13],[19, 14, 8, 26, 41, 2],[17, 46, 7, 20],[42, 22, 40, 10, 43, 36],[49, 37, 47, 3, 38, 44, 39, 16]
00000000000000000000000000000000000000000000000000,00000000000000000000000000000000000000000000000000,00000000000000000000000000000000000000000000000000,11001111011000000001001001001011111111101111010111,00000000000000000000000000000000000000000000000000,00000000000000000000000000000000000000000000000000,00000000000000000000000000000000000000000000000000,00110000100111111110110110110100000000010000101000,00000000000000000000000000000000000000000000000000,00000000000000000000000000000000000000000000000000,[],[],[],[9, 10, 0, 0, 2, 6, 2, 1, 0, 2, 10, 0, 0, 0, 0, 0, 0, 0, 0, 2, 0, 0, 6, 0, 0, 1, 0, 0, 10, 0, 10, 9, 10, 2, 10, 9, 10, 9, 6, 0, 1, 9, 1, 2, 0, 9, 0, 9, 10, 10],[],[],[],[0, 0, 3, 4, 0, 0, 0, 0, 3, 0, 0, 8, 4, 3, 7, 4, 5, 4, 8, 0, 3, 5, 0, 5, 8, 0, 5, 7, 0, 3, 0, 0, 0, 0, 0, 0, 0, 0, 0, 8, 0, 0, 0, 0, 5, 0, 7, 0, 0, 0],[],[][42, 7, 40, 25],[9, 19, 6, 43, 4, 33],[13, 20, 29, 8, 2],[3, 15, 17, 12],[44, 26, 16, 21, 23],[38, 5, 22],[46, 14, 27],[11, 24, 39, 18],[35, 41, 37, 0, 47, 31, 45],[30, 49, 48, 36, 34, 32, 28, 10, 1]
00000000000000000000000000000000000000000000000000,00001101000100000000100000010001111000000000011000,00110000100000101001000000100000000001110100100101,00000000000000000000000000000000000000000000000000,00000000000000000000000000000000000000000000000000,00000000000011010110010110000100000000000000000000,00000000000000000000000000000000000000000000000000,00000000000000000000000000000000000000000000000000,11000010011000000000001001001010000110001011000010,00000000000000000000000000000000000000000000000000,[],[0, 0, 0, 0, 4, 4, 0, 9, 0, 0, 0, 9, 0, 0, 0, 0, 0, 0, 0, 0, 4, 0, 0, 0, 0, 0, 0, 4, 0, 0, 0, 9, 4, 9, 9, 0, 0, 0, 0, 0, 0, 0, 0, 0, 0, 9, 9, 0, 0, 0],[0, 0, 8, 2, 0, 0, 0, 0, 8, 0, 0, 0, 0, 0, 2, 0, 8, 0, 0, 2, 0, 0, 0, 0, 0, 0, 5, 0, 0, 0, 0, 0, 0, 0, 0, 0, 0, 5, 2, 2, 0, 5, 0, 0, 8, 0, 0, 2, 0, 2],[],[],[0, 0, 0, 0, 0, 0, 0, 0, 0, 0, 0, 0, 7, 1, 0, 7, 0, 1, 1, 0, 0, 7, 0, 1, 7, 0, 0, 0, 0, 1, 0, 0, 0, 0, 0, 0, 0, 0, 0, 0, 0, 0, 0, 0, 0, 0, 0, 0, 0, 0],[],[],[6, 3, 0, 0, 0, 0, 10, 0, 0, 6, 3, 0, 0, 0, 0, 0, 0, 0, 0, 0, 0, 0, 10, 0, 0, 3, 0, 0, 10, 0, 3, 0, 0, 0, 0, 6, 10, 0, 0, 0, 10, 0, 6, 3, 0, 0, 0, 0, 10, 0],[][23, 13, 29, 17, 18],[19, 47, 14, 38, 49, 3, 39],[10, 1, 43, 25, 30],[27, 20, 32, 5, 4],[26, 37, 41],[35, 9, 0, 42],[15, 12, 21, 24],[16, 8, 44, 2],[31, 33, 11, 7, 46, 45, 34],[36, 22, 40, 48, 28, 6]
00000000000000000000000000000000000000000000000000,00001101000100000000100000010001111000000000011000,00110000100000101001000001100000000001110100100101,00000000000000000000000000000000000000000000000000,11000010011000000000001000001010000110001011000010,00000000000011010110010110000100000000000000000000,00000000000000000000000000000000000000000000000000,00000000000000000000000000000000000000000000000000,00000000000000000000000000000000000000000000000000,00000000000000000000000000000000000000000000000000,[],[0, 0, 0, 0, 4, 4, 0, 3, 0, 0, 0, 6, 0, 0, 0, 0, 0, 0, 0, 0, 3, 0, 0, 0, 0, 0, 0, 6, 0, 0, 0, 4, 6, 3, 3, 0, 0, 0, 0, 0, 0, 0, 0, 0, 0, 4, 6, 0, 0, 0],[0, 0, 10, 2, 0, 0, 0, 0, 2, 0, 0, 0, 0, 0, 10, 0, 10, 0, 0, 2, 0, 0, 0, 0, 0, 2, 10, 0, 0, 0, 0, 0, 0, 0, 0, 0, 0, 2, 2, 2, 0, 2, 0, 0, 2, 0, 0, 2, 0, 10],[],[8, 8, 0, 0, 0, 0, 7, 0, 0, 5, 8, 0, 0, 0, 0, 0, 0, 0, 0, 0, 0, 0, 5, 0, 0, 0, 0, 0, 8, 0, 5, 0, 0, 0, 0, 5, 5, 0, 0, 0, 7, 0, 8, 7, 0, 0, 0, 0, 8, 0],[0, 0, 0, 0, 0, 0, 0, 0, 0, 0, 0, 0, 9, 9, 0, 9, 0, 9, 9, 0, 0, 1, 0, 1, 9, 0, 0, 0, 0, 9, 0, 0, 0, 0, 0, 0, 0, 0, 0, 0, 0, 0, 0, 0, 0, 0, 0, 0, 0, 0],[],[],[],[][23, 21],[39, 47, 8, 38, 37, 41, 19, 25, 3, 44],[7, 20, 33, 34],[4, 45, 31, 5],[30, 9, 36, 22, 35],[32, 11, 27, 46],[43, 40, 6],[28, 48, 1, 0, 10, 42],[13, 24, 12, 18, 29, 17, 15],[2, 14, 49, 16, 26]
00000000000000000000000000000000000000000000000000,00000000000000000000000000000000000000000000000000,00110000100000101001000000100000000001110100100101,10000001000000000000000000000011011100000000000010,00001100000000000000000000001000100000000000010000,00000000000001010010010010000000000000000000000000,00000000000000000000000000000000000000000000000000,00000000000110000100100100010100000000000000001000,01000010011000000000001001000000000010001011000000,00000000000000000000000000000000000000000000000000,[],[],[0, 0, 2, 10, 0, 0, 0, 0, 10, 0, 0, 0, 0, 0, 10, 0, 2, 0, 0, 10, 0, 0, 0, 0, 0, 0, 10, 0, 0, 0, 0, 0, 0, 0, 0, 0, 0, 10, 2, 2, 0, 2, 0, 0, 2, 0, 0, 2, 0, 2],[4, 0, 0, 0, 0, 0, 0, 6, 0, 0, 0, 0, 0, 0, 0, 0, 0, 0, 0, 0, 0, 0, 0, 0, 0, 0, 0, 0, 0, 0, 4, 4, 0, 6, 6, 4, 0, 0, 0, 0, 0, 0, 0, 0, 0, 0, 0, 0, 6, 0],[0, 0, 0, 0, 5, 5, 0, 0, 0, 0, 0, 0, 0, 0, 0, 0, 0, 0, 0, 0, 0, 0, 0, 0, 0, 0, 0, 0, 5, 0, 0, 0, 5, 0, 0, 0, 0, 0, 0, 0, 0, 0, 0, 0, 0, 5, 0, 0, 0, 0],[0, 0, 0, 0, 0, 0, 0, 0, 0, 0, 0, 0, 0, 3, 0, 3, 0, 0, 3, 0, 0, 8, 0, 0, 8, 0, 0, 0, 0, 0, 0, 0, 0, 0, 0, 0, 0, 0, 0, 0, 0, 0, 0, 0, 0, 0, 0, 0, 0, 0],[],[0, 0, 0, 0, 0, 0, 0, 0, 0, 0, 0, 1, 7, 0, 0, 0, 0, 7, 0, 0, 1, 0, 0, 1, 0, 0, 0, 1, 0, 7, 0, 0, 0, 0, 0, 0, 0, 0, 0, 0, 0, 0, 0, 0, 0, 0, 7, 0, 0, 0],[0, 9, 0, 0, 0, 0, 9, 0, 0, 9, 9, 0, 0, 0, 0, 0, 0, 0, 0, 0, 0, 0, 9, 0, 0, 9, 0, 0, 0, 0, 0, 0, 0, 0, 0, 0, 9, 0, 0, 0, 9, 0, 9, 9, 0, 0, 0, 0, 0, 0],[][23, 27, 11, 20],[39, 47, 2, 49, 44, 16, 38, 41],[15, 13, 18],[31, 35, 30, 0],[5, 45, 32, 4, 28],[34, 33, 7, 48],[17, 12, 29, 46],[24, 21],[36, 43, 22, 25, 1, 42, 9, 10, 40, 6],[26, 8, 14, 19, 37, 3]
00000000000000000000000000000000000000000000000000,00000000000000000000000000000000000000000000000000,00110000100000101001000000100000000001110100100101,10001101000100000000100000001011111100000000011010,00000000000000000000000000000000000000000000000000,00000000000011010110010110010100000000000000000000,00000000000000000000000000000000000000000000000000,00000000000000000000000000000000000000000000000000,01000010011000000000001001000000000010001011000000,00000000000000000000000000000000000000000000000000,[],[],[0, 0, 9, 3, 0, 0, 0, 0, 9, 0, 0, 0, 0, 0, 6, 0, 9, 0, 0, 6, 0, 0, 0, 0, 0, 0, 9, 0, 0, 0, 0, 0, 0, 0, 0, 0, 0, 9, 9, 9, 0, 3, 0, 0, 3, 0, 0, 3, 0, 6],[10, 0, 0, 0, 10, 10, 0, 10, 0, 0, 0, 7, 0, 0, 0, 0, 0, 0, 0, 0, 7, 0, 0, 0, 0, 0, 0, 0, 4, 0, 4, 7, 4, 7, 4, 7, 0, 0, 0, 0, 0, 0, 0, 0, 0, 10, 4, 0, 10, 0],[],[0, 0, 0, 0, 0, 0, 0, 0, 0, 0, 0, 0, 5, 2, 0, 2, 0, 5, 2, 0, 0, 2, 0, 5, 5, 0, 0, 2, 0, 2, 0, 0, 0, 0, 0, 0, 0, 0, 0, 0, 0, 0, 0, 0, 0, 0, 0, 0, 0, 0],[],[],[0, 8, 0, 0, 0, 0, 8, 0, 0, 1, 1, 0, 0, 0, 0, 0, 0, 0, 0, 0, 0, 0, 8, 0, 0, 1, 0, 0, 0, 0, 0, 0, 0, 0, 0, 0, 8, 0, 0, 0, 1, 0, 8, 1, 0, 0, 0, 0, 0, 0],[][9, 43, 10, 25, 40],[13, 15, 18, 27, 29, 21],[47, 3, 41, 44],[46, 28, 30, 34, 32],[24, 17, 23, 12],[14, 19, 49],[20, 33, 35, 31, 11],[42, 6, 1, 22, 36],[39, 38, 2, 26, 8, 16, 37],[5, 4, 7, 48, 0, 45]
